benchmark_instances/dzn_benchmark_instances/benchmark_instance_11-2.dzn
% Input: sequence of points
seq_points = [|4,1
              |6,1
              |1,2
              |4,2
              |8,2
              |9,2
              |6,3
              |10,3
              |1,4
              |6,4
              |9,4
              |10,4
              |3,5
              |4,5
              |5,5
              |6,5
              |1,6
              |3,6
              |4,6
              |5,6
              |5,7
              |6,7
              |8,8
              |9,8
              |10,8
              |1,9
              |2,9
              |3,9
              |4,9
              |5,9
              |6,9
              |8,9
              |10,9
              |2,10
              |3,10
              |4,10
              |6,10
              |8,10
              |8,0
              |9,0
              |11,0
              |11,8
              |11,9
              |6,11
              |8,11
              |11,11
              |0,9
              |0,10
              |0,11
              |0,0
             |];

num_points = 50;
