benchmark_instances/lp_benchmark_instances/benchmark_instance_11-2.lp
% Input: sequence of points
point(4,1).
point(6,1).
point(1,2).
point(4,2).
point(8,2).
point(9,2).
point(6,3).
point(10,3).
point(1,4).
point(6,4).
point(9,4).
point(10,4).
point(3,5).
point(4,5).
point(5,5).
point(6,5).
point(1,6).
point(3,6).
point(4,6).
point(5,6).
point(5,7).
point(6,7).
point(8,8).
point(9,8).
point(10,8).
point(1,9).
point(2,9).
point(3,9).
point(4,9).
point(5,9).
point(6,9).
point(8,9).
point(10,9).
point(2,10).
point(3,10).
point(4,10).
point(6,10).
point(8,10).
point(8,0).
point(9,0).
point(11,0).
point(11,8).
point(11,9).
point(6,11).
point(8,11).
point(11,11).
point(0,9).
point(0,10).
point(0,11).
point(0,0).
